max:+ x0 + x1 + x2 + x3 + x4 + x5 + x6 + x7 + x8 ;

 /* sigma variables*/
x0 = 8;
x1 = x0 + + 0.33333333333333337 x5+ 0.33333333333333337 x7+ 16.666666666666668;
x2 = x1 + + 0.16666666666666669 x3+ 0.16666666666666669 x8+ 16.666666666666668;
x3 = 8;
x4 = x3 + + 0.16666666666666669 x1+ 0.16666666666666669 x8+ 16.666666666666668;
x5 = x4 + + 0.16666666666666669 x2+ 0.16666666666666669 x6+ 16.666666666666668;
x6 = 8;
x7 = x6 + + 0.16666666666666669 x2+ 0.16666666666666669 x4+ 16.666666666666668;
x8 = x7 + + 0.33333333333333337 x0+ 0.33333333333333337 x5+ 16.666666666666668;
